Traveling Salesman Problem/TSP_generados/Aleatorio1621103249_6.tsp
NAME: Aleatorio1621103249_6.tsp
COMMENT: Randomly generated scenario
TYPE: TSP
DIMENSION: 6
EDGE_WEIGHT_TYPE: ATT
NODE_COORD_SECTION
1 44.21 28.16
2 49.67 40.85
3 35.69 44.99
4 23.37 4.67
5 6.78 30.06
6 7.58 0.44
