Traveling Salesman Problem/TSP_generados/Aleatorio1621103249_6.opt.tour
NAME: Aleatorio1621103249_6.opt.tour
COMMENT: Optimal solution for Aleatorio1621103249_6 (138.31202665814794)
TYPE: TOUR
DIMENSION: 6
TOUR_SECTION
1 2 3 5 6 4
-1
EOF
